data;

set players:= 'SrvcPro' 'Router';
set actions:= 'high' 'low';
set lim_type:= 'lower' 'upper';


param S = 30;

param theta:=
	low low 90
	low high 90
	high low 110
	high high 110;
	
param rho:=
	low low 70
	low high 20
	high low 30
	high high 60;
	
param lamda:= 
	high 0.1
	low 0.04;	

param beta = 0.95;